Version identifier: 12.10.0.0 | 2019-11-26 | 843d4de
CPXPARAM_WorkMem                                 28672
Tried aggregator 2 times.
Aggregator did 20 substitutions.
Reduced MIP has 73 rows, 90 columns, and 315 nonzeros.
Reduced MIP has 90 binaries, 0 generals, 0 SOSs, and 0 indicators.
Presolve time = 0,00 sec. (0,29 ticks)
Found incumbent of value 852,000000 after 0,00 sec. (0,56 ticks)
Probing time = 0,00 sec. (0,09 ticks)
Tried aggregator 1 time.
Detecting symmetries...
MIP Presolve eliminated 15 rows and 0 columns.
MIP Presolve added 30 rows and 0 columns.
Reduced MIP has 88 rows, 90 columns, and 330 nonzeros.
Reduced MIP has 90 binaries, 0 generals, 0 SOSs, and 0 indicators.
Presolve time = 0,00 sec. (0,37 ticks)
Probing time = 0,00 sec. (0,09 ticks)
Clique table members: 205.
MIP emphasis: balance optimality and feasibility.
MIP search method: dynamic search.
Parallel mode: deterministic, using up to 16 threads.
Root relaxation solution time = 0,00 sec. (0,24 ticks)

        Nodes                                         Cuts/
   Node  Left     Objective  IInf  Best Integer    Best Bound    ItCnt     Gap

*     0+    0                          852,0000        0,0000           100,00%
*     0+    0                          593,0000        0,0000           100,00%
      0     0      284,0000    69      593,0000      284,0000       38   52,11%
      0     0      290,4121    69      593,0000      Cuts: 84       74   51,03%
      0     0      302,4070    69      593,0000      Cuts: 88      104   49,00%
      0     0      309,4357    69      593,0000      Cuts: 90      124   47,82%
      0     0      310,7753    69      593,0000      Cuts: 11      146   47,59%
      0     0      311,6945    69      593,0000      Cuts: 34      152   47,44%
      0     0      326,1702    69      593,0000      Cuts: 60      205   45,00%
      0     0      329,5466    69      593,0000       Cuts: 8      236   44,43%
      0     0      330,5761    69      593,0000   ZeroHalf: 5      252   44,25%
      0     0      332,4382    69      593,0000   ZeroHalf: 8      264   43,94%
*     0+    0                          577,0000      332,4382            42,39%
      0     0      333,2748    69      577,0000   ZeroHalf: 4      274   42,24%
      0     0      333,4636    69      577,0000       Cuts: 3      280   42,21%
      0     0      333,5605    69      577,0000   ZeroHalf: 1      284   42,19%
      0     0      333,5980    69      577,0000       Cuts: 2      287   42,18%
      0     0      333,6923    69      577,0000   ZeroHalf: 2      290   42,17%
      0     0      334,8097    69      577,0000   ZeroHalf: 8      321   41,97%
      0     0      335,2264    69      577,0000      Cuts: 14      347   41,90%
      0     0      336,0091    69      577,0000      Cuts: 25      364   41,77%
      0     0      336,4099    69      577,0000   ZeroHalf: 3      372   41,70%
      0     0      336,9307    69      577,0000   ZeroHalf: 7      382   41,61%
      0     0      337,2609    69      577,0000       Cuts: 4      396   41,55%
      0     0      337,5121    69      577,0000      Cuts: 45      423   41,51%
      0     0      337,8361    69      577,0000       Cuts: 6      449   41,45%
      0     0      338,1845    69      577,0000      Cuts: 29      475   41,39%
      0     0      338,3762    69      577,0000   ZeroHalf: 6      494   41,36%
      0     0      338,8563    69      577,0000      Cuts: 24      519   41,27%
      0     0      338,9952    69      577,0000       Cuts: 9      531   41,25%
      0     0      339,2054    69      577,0000   ZeroHalf: 4      547   41,21%
      0     0      339,5152    69      577,0000      Cuts: 20      566   41,16%
      0     0      339,7300    69      577,0000       Cuts: 8      595   41,12%
*     0+    0                          572,0000      339,7300            40,61%
      0     0      340,2539    69      572,0000      Cuts: 25      613   40,52%
      0     0      340,7389    69      572,0000      Cuts: 36      641   40,43%
      0     0      340,8771    69      572,0000      Cuts: 24      659   40,41%
      0     0      340,8931    69      572,0000      Cuts: 20      666   40,40%
*     0+    0                          563,0000      340,8931            39,45%
      0     0        cutoff            563,0000      563,0000      666    0,00%
Elapsed time = 0,14 sec. (93,34 ticks, tree = 0,01 MB, solutions = 5)

Clique cuts applied:  4
Cover cuts applied:  13
Implied bound cuts applied:  1
Mixed integer rounding cuts applied:  5
Zero-half cuts applied:  19
Gomory fractional cuts applied:  6

Root node processing (before b&c):
  Real time             =    0,14 sec. (93,35 ticks)
Parallel b&c, 16 threads:
  Real time             =    0,00 sec. (0,00 ticks)
  Sync time (average)   =    0,00 sec.
  Wait time (average)   =    0,00 sec.
                          ------------
Total (root+branch&cut) =    0,14 sec. (93,35 ticks)
